Minimize
  obj: 1.0000000000000000e+00 x3
Subject To
 C0 : 1.0000000000000000e+00 x0 + 1.0000000000000000e+00 x1 + 1.0000000000000000e+00 x2 + 1.0000000000000000e+00 x3 >= 1.0000000000000000e+00
 C1 : 1.0000000000000000e+00 x0 + 1.5454545454545459e+00 x1 + 2.3884297520661165e+00 x2 + 1.0000000000000000e+00 x3 >= 6.4705882352941180e-01
 C2 : 1.0000000000000000e+00 x0 + 2.0909090909090913e+00 x1 + 4.3719008264462831e+00 x2 + 1.0000000000000000e+00 x3 >= 4.7826086956521736e-01
 C3 : 1.0000000000000000e+00 x0 + 2.6363636363636372e+00 x1 + 6.9504132231405001e+00 x2 + 1.0000000000000000e+00 x3 >= 3.7931034482758614e-01
 C4 : 1.0000000000000000e+00 x0 + 3.1818181818181835e+00 x1 + 1.0123966942148770e+01 x2 + 1.0000000000000000e+00 x3 >= 3.1428571428571423e-01
 C5 : 1.0000000000000000e+00 x0 + 3.7272727272727293e+00 x1 + 1.3892561983471087e+01 x2 + 1.0000000000000000e+00 x3 >= 2.6829268292682918e-01
 C6 : 1.0000000000000000e+00 x0 + 4.2727272727272752e+00 x1 + 1.8256198347107461e+01 x2 + 1.0000000000000000e+00 x3 >= 2.3404255319148926e-01
 C7 : 1.0000000000000000e+00 x0 + 4.8181818181818219e+00 x1 + 2.3214876033057881e+01 x2 + 1.0000000000000000e+00 x3 >= 2.0754716981132066e-01
 C8 : 1.0000000000000000e+00 x0 + 5.3636363636363669e+00 x1 + 2.8768595041322350e+01 x2 + 1.0000000000000000e+00 x3 >= 1.8644067796610159e-01
 C9 : 1.0000000000000000e+00 x0 + 5.9090909090909128e+00 x1 + 3.4917355371900876e+01 x2 + 1.0000000000000000e+00 x3 >= 1.6923076923076913e-01
 C10 : 1.0000000000000000e+00 x0 + 6.4545454545454586e+00 x1 + 4.1661157024793447e+01 x2 + 1.0000000000000000e+00 x3 >= 1.5492957746478864e-01
 C11 : 1.0000000000000000e+00 x0 + 7.0000000000000000e+00 x1 + 4.9000000000000008e+01 x2 + 1.0000000000000000e+00 x3 >= 1.4285714285714288e-01
 C12 : 1.0000000000000000e+00 x0 + 1.8268918037908491e+00 x1 + 3.3375336627581822e+00 x2 + 1.0000000000000000e+00 x3 >= 5.4737779102460993e-01
 C13 : 1.0000000000000000e+00 x0 + 1.8228770831175743e+00 x1 + 3.3228808601552351e+00 x2 + 1.0000000000000000e+00 x3 >= 5.4858334073175741e-01
 C14 : 1.0000000000000000e+00 x0 + 4.8228774655048162e+00 x1 + 2.3260147047274153e+01 x2 + 1.0000000000000000e+00 x3 >= 2.0734509784924199e-01
 C15 : -1.0000000000000000e+00 x0 - 1.0000000000000000e+00 x1 - 1.0000000000000000e+00 x2 + 1.0000000000000000e+00 x3 >= -1.0000000000000000e+00
 C16 : -1.0000000000000000e+00 x0 - 1.5454545454545459e+00 x1 - 2.3884297520661165e+00 x2 + 1.0000000000000000e+00 x3 >= -6.4705882352941179e-01
 C17 : -1.0000000000000000e+00 x0 - 2.0909090909090913e+00 x1 - 4.3719008264462831e+00 x2 + 1.0000000000000000e+00 x3 >= -4.7826086956521735e-01
 C18 : -1.0000000000000000e+00 x0 - 2.6363636363636372e+00 x1 - 6.9504132231405001e+00 x2 + 1.0000000000000000e+00 x3 >= -3.7931034482758613e-01
 C19 : -1.0000000000000000e+00 x0 - 3.1818181818181835e+00 x1 - 1.0123966942148770e+01 x2 + 1.0000000000000000e+00 x3 >= -3.1428571428571422e-01
 C20 : -1.0000000000000000e+00 x0 - 3.7272727272727293e+00 x1 - 1.3892561983471087e+01 x2 + 1.0000000000000000e+00 x3 >= -2.6829268292682917e-01
 C21 : -1.0000000000000000e+00 x0 - 4.2727272727272752e+00 x1 - 1.8256198347107461e+01 x2 + 1.0000000000000000e+00 x3 >= -2.3404255319148925e-01
 C22 : -1.0000000000000000e+00 x0 - 4.8181818181818219e+00 x1 - 2.3214876033057881e+01 x2 + 1.0000000000000000e+00 x3 >= -2.0754716981132065e-01
 C23 : -1.0000000000000000e+00 x0 - 5.3636363636363669e+00 x1 - 2.8768595041322350e+01 x2 + 1.0000000000000000e+00 x3 >= -1.8644067796610158e-01
 C24 : -1.0000000000000000e+00 x0 - 5.9090909090909128e+00 x1 - 3.4917355371900876e+01 x2 + 1.0000000000000000e+00 x3 >= -1.6923076923076912e-01
 C25 : -1.0000000000000000e+00 x0 - 6.4545454545454586e+00 x1 - 4.1661157024793447e+01 x2 + 1.0000000000000000e+00 x3 >= -1.5492957746478863e-01
 C26 : -1.0000000000000000e+00 x0 - 7.0000000000000000e+00 x1 - 4.9000000000000008e+01 x2 + 1.0000000000000000e+00 x3 >= -1.4285714285714287e-01
 C27 : -1.0000000000000000e+00 x0 - 1.8268918037908491e+00 x1 - 3.3375336627581822e+00 x2 + 1.0000000000000000e+00 x3 >= -5.4737779102460992e-01
 C28 : -1.0000000000000000e+00 x0 - 1.8228770831175743e+00 x1 - 3.3228808601552351e+00 x2 + 1.0000000000000000e+00 x3 >= -5.4858334073175740e-01
 C29 : -1.0000000000000000e+00 x0 - 4.8228774655048162e+00 x1 - 2.3260147047274153e+01 x2 + 1.0000000000000000e+00 x3 >= -2.0734509784924198e-01
Bounds
  x0 free
  x1 free
  x2 free
  x3 free
End
